3 
4  41 
5  01 20 34 49 
6  05 20 35 50 
7  05 20 35 50 
8  05 20 35 50 
9  06 21 36 49 
10  04 19 34 49 
11  04 19 34 49 
12  04 19 34 49 
13  04 19 34 49 
14  06 25 40 55 
15  10 25 40 55 
16  10 25 40 55 
17  07 22 35 51 
18  05 20 35 49 
19  04 19 34 49 
20  02 17 32 47 
21  02 17 32 47 
22  02 17 30 43 
23  
0 
